unsat
(define-fun skel ((n144 Bool) (n183 Bool) (n178 Bool) (n194 Bool)) Bool (and n194 (or (not n144) (and n183 n178))))
0.10user 0.01system 0:00.11elapsed 100%CPU (0avgtext+0avgdata 27136maxresident)k
0inputs+8outputs (0major+1546minor)pagefaults 0swaps
